48071.21,57.51,69.74
44044.16,62.77,76.12
52030.7,53.13,64.44
51396.29,53.79,65.23
47053.09,58.75,71.25
45056.87,61.36,74.41
44892.64,61.58,74.68
44943.81,61.51,74.6
46362.85,59.63,72.31
48232.36,57.32,69.51
46565.71,59.37,72.0
53193.17,51.97,63.03
49211.11,56.18,68.13
50194.98,55.08,66.79
46991.86,58.83,71.34
57482.43,48.1,58.32
46059.87,60.02,72.79
50268.15,55.0,66.69
48245.59,57.3,69.49
45340.9,60.97,73.94
